(set-info :source |printed by MathSAT|)
(declare-fun |.x{93}| () Int)
(declare-fun |.y{8}| () Int)
(declare-fun |.x{88}| () Int)
(declare-fun |.y{9}| () Int)
(declare-fun |.y{7}| () Int)
(declare-fun |.y{10}| () Int)
(declare-fun |.x{89}| () (Array Int Int))
(declare-fun |.y{11}| () (Array Int Int))
(declare-fun |.x{92}| () Int)
(declare-fun |.y{12}| () Int)
(declare-fun |.x{85}| () Int)
(declare-fun |.y{13}| () Int)
(declare-fun |.loc{3}| () Bool)
(declare-fun |.loc{5}| () Bool)
(declare-fun |.loc{4}| () Bool)
(declare-fun |.loc{6}| () Bool)
(declare-fun |.x{94}| () Int)
(declare-fun |.x{97}| () Int)
(declare-fun |.x{90}| () Int)
(define-fun .def_20 () Bool (! |.loc{3}| :next |.loc{5}|))
(define-fun .def_76 () Bool (not .def_20))
(define-fun .def_22 () Bool (! |.loc{4}| :next |.loc{6}|))
(define-fun .def_44 () Bool (not .def_22))
(define-fun .def_77 () Bool (! (and .def_44 .def_76) :init true))
(define-fun .def_14 () (Array Int Int) (! |.x{89}| :next |.y{11}|))
(define-fun .def_88 () Int (select .def_14 |.x{90}|))
(define-fun .def_89 () Bool (<= |.x{97}| .def_88))
(define-fun .def_140 () Bool (not .def_89))
(define-fun .def_10 () Int (! |.x{88}| :next |.y{9}|))
(define-fun .def_92 () Bool (<= .def_10 0))
(define-fun .def_90 () Bool (<= |.x{90}| 0))
(define-fun .def_91 () Bool (not .def_90))
(define-fun .def_93 () Bool (or .def_91 .def_92))
(define-fun .def_141 () Bool (and .def_93 .def_140))
(define-fun .def_95 () Bool (not .def_92))
(define-fun .def_142 () Bool (and .def_95 .def_141))
(define-fun .def_143 () Bool (and .def_22 .def_142))
(define-fun .def_144 () Bool (and .def_76 .def_143))
(define-fun .def_71 () Int (* (- 1) |.x{94}|))
(define-fun .def_16 () Int (! |.x{92}| :next |.y{12}|))
(define-fun .def_101 () Int (* 2 .def_16))
(define-fun .def_103 () Int (+ .def_101 .def_71))
(define-fun .def_104 () Bool (= .def_103 0))
(define-fun .def_145 () Bool (and .def_104 .def_144))
(define-fun .def_146 () Bool (and |.loc{5}| .def_145))
(define-fun .def_57 () Int (* (- 1) |.x{90}|))
(define-fun .def_112 () Int (+ .def_16 .def_57))
(define-fun .def_113 () Int (+ .def_10 .def_112))
(define-fun .def_114 () Bool (= .def_113 0))
(define-fun .def_147 () Bool (and .def_114 .def_146))
(define-fun .def_48 () Int (* (- 1) |.x{97}|))
(define-fun .def_119 () Int (+ |.x{94}| .def_48))
(define-fun .def_8 () Int (! |.x{93}| :next |.y{8}|))
(define-fun .def_120 () Int (+ .def_8 .def_119))
(define-fun .def_121 () Bool (= .def_120 0))
(define-fun .def_148 () Bool (and .def_121 .def_147))
(define-fun .def_18 () Int (! |.x{85}| :next |.y{13}|))
(define-fun .def_123 () Bool (<= .def_18 .def_16))
(define-fun .def_124 () Bool (not .def_123))
(define-fun .def_149 () Bool (and .def_124 .def_148))
(define-fun .def_138 () Bool (= .def_16 |.y{13}|))
(define-fun .def_12 () Int (! |.y{7}| :next |.y{10}|))
(define-fun .def_135 () Bool (= |.y{9}| .def_12))
(define-fun .def_133 () Bool (= |.y{8}| .def_10))
(define-fun .def_130 () Bool (= |.y{12}| 0))
(define-fun .def_97 () Bool (not |.loc{5}|))
(define-fun .def_128 () Bool (and .def_20 .def_97))
(define-fun .def_129 () Bool (and .def_44 .def_128))
(define-fun .def_131 () Bool (and .def_129 .def_130))
(define-fun .def_65 () Bool (<= .def_16 .def_8))
(define-fun .def_132 () Bool (and .def_65 .def_131))
(define-fun .def_134 () Bool (and .def_132 .def_133))
(define-fun .def_136 () Bool (and .def_134 .def_135))
(define-fun .def_106 () Bool (= .def_14 |.y{11}|))
(define-fun .def_137 () Bool (and .def_106 .def_136))
(define-fun .def_139 () Bool (and .def_137 .def_138))
(define-fun .def_150 () Bool (or .def_139 .def_149))
(define-fun .def_126 () Bool (= .def_18 |.y{13}|))
(define-fun .def_116 () Bool (= .def_8 |.y{8}|))
(define-fun .def_108 () Int (* (- 1) |.y{12}|))
(define-fun .def_109 () Int (+ .def_16 .def_108))
(define-fun .def_110 () Bool (= .def_109 (- 1)))
(define-fun .def_94 () Bool (and .def_89 .def_93))
(define-fun .def_96 () Bool (and .def_94 .def_95))
(define-fun .def_98 () Bool (and .def_96 .def_97))
(define-fun .def_99 () Bool (and .def_22 .def_98))
(define-fun .def_100 () Bool (and .def_76 .def_99))
(define-fun .def_105 () Bool (and .def_100 .def_104))
(define-fun .def_107 () Bool (and .def_105 .def_106))
(define-fun .def_111 () Bool (and .def_107 .def_110))
(define-fun .def_115 () Bool (and .def_111 .def_114))
(define-fun .def_117 () Bool (and .def_115 .def_116))
(define-fun .def_69 () Bool (= .def_10 |.y{9}|))
(define-fun .def_118 () Bool (and .def_69 .def_117))
(define-fun .def_122 () Bool (and .def_118 .def_121))
(define-fun .def_125 () Bool (and .def_122 .def_124))
(define-fun .def_127 () Bool (and .def_125 .def_126))
(define-fun .def_151 () Bool (or .def_127 .def_150))
(define-fun .def_152 () Bool (and |.loc{6}| .def_151))
(define-fun .def_85 () Bool (<= |.y{12}| 0))
(define-fun .def_86 () Bool (not .def_85))
(define-fun .def_82 () Bool (<= |.y{10}| 0))
(define-fun .def_83 () Bool (not .def_82))
(define-fun .def_79 () Bool (= |.y{8}| 0))
(define-fun .def_63 () Bool (not |.loc{6}|))
(define-fun .def_78 () Bool (and .def_63 .def_77))
(define-fun .def_80 () Bool (and .def_78 .def_79))
(define-fun .def_81 () Bool (and |.loc{5}| .def_80))
(define-fun .def_84 () Bool (and .def_81 .def_83))
(define-fun .def_87 () Bool (and .def_84 .def_86))
(define-fun .def_153 () Bool (or .def_87 .def_152))
(define-fun .def_72 () Int (+ .def_12 .def_71))
(define-fun .def_73 () Int (+ .def_8 .def_72))
(define-fun .def_74 () Bool (= .def_73 0))
(define-fun .def_66 () Bool (not .def_65))
(define-fun .def_59 () Int (* 2 .def_8))
(define-fun .def_60 () Int (+ .def_59 .def_57))
(define-fun .def_61 () Bool (= .def_60 0))
(define-fun .def_50 () Int (+ .def_48 |.x{90}|))
(define-fun .def_51 () Int (+ .def_10 .def_50))
(define-fun .def_52 () Bool (= .def_51 0))
(define-fun .def_46 () Bool (= .def_16 |.y{12}|))
(define-fun .def_40 () (Array Int Int) (store .def_14 |.x{94}| |.x{97}|))
(define-fun .def_41 () Bool (= |.y{11}| .def_40))
(define-fun .def_37 () Bool (= .def_12 |.y{10}|))
(define-fun .def_33 () Int (* (- 1) |.y{8}|))
(define-fun .def_34 () Int (+ .def_8 .def_33))
(define-fun .def_35 () Bool (= .def_34 (- 1)))
(define-fun .def_28 () Bool (<= |.x{94}| 0))
(define-fun .def_29 () Bool (not .def_28))
(define-fun .def_25 () Bool (<= .def_12 0))
(define-fun .def_30 () Bool (or .def_25 .def_29))
(define-fun .def_26 () Bool (not .def_25))
(define-fun .def_31 () Bool (and .def_26 .def_30))
(define-fun .def_36 () Bool (and .def_31 .def_35))
(define-fun .def_38 () Bool (and .def_36 .def_37))
(define-fun .def_42 () Bool (and .def_38 .def_41))
(define-fun .def_43 () Bool (and .def_20 .def_42))
(define-fun .def_45 () Bool (and .def_43 .def_44))
(define-fun .def_47 () Bool (and .def_45 .def_46))
(define-fun .def_53 () Bool (and .def_47 .def_52))
(define-fun .def_62 () Bool (and .def_53 .def_61))
(define-fun .def_64 () Bool (and .def_62 .def_63))
(define-fun .def_67 () Bool (and .def_64 .def_66))
(define-fun .def_68 () Bool (and |.loc{5}| .def_67))
(define-fun .def_70 () Bool (and .def_68 .def_69))
(define-fun .def_75 () Bool (and .def_70 .def_74))
(define-fun .def_154 () Bool (! (or .def_75 .def_153) :trans true))
(define-fun .def_155 () Bool (and .def_20 .def_22))
(define-fun .def_156 () Bool (! (not .def_155) :invar-property 0))
(assert true)
